
Log started (V11.0.0) Sun Apr 13 12:58:53 2008

Tried aggregator 1 time.
Reduced MIP has 110 rows, 1001 columns, and 2010 nonzeros.
Presolve time =    0.00 sec.
Clique table members: 100.
MIP emphasis: balance optimality and feasibility.
MIP search method: dynamic search.
Parallel mode: none, using 1 thread.
Root relaxation solution time =    0.02 sec.

        Nodes                                         Cuts/
   Node  Left     Objective  IInf  Best Integer     Best Node    ItCnt     Gap

*     0+    0                         4852.0000      113.8118      217   97.65%
*     0+    0                          135.0000      113.8118      217   15.69%
      0     0      114.3574    25      135.0000     Fract: 10      242   15.29%
*     0+    0                          132.0000      114.3574      242   13.37%
      0     0      114.4202    33      132.0000       Cuts: 8      256   13.32%
*     0+    0                          128.0000      114.4202      256   10.61%
      0     0      114.5358    37      128.0000       Cuts: 5      269   10.52%
*     0+    0                          127.0000      114.5358      269    9.81%
      0     0      114.6013    39      127.0000       Cuts: 3      279    9.76%
*     0+    0                          126.0000      114.6013      279    9.05%
      0     0      114.6217    41      126.0000       Cuts: 4      287    9.03%
      0     0      114.6258    43      126.0000     Covers: 2      291    9.03%
*     0+    0                          125.0000      114.6258      291    8.30%
      0     0      114.6275    45      125.0000       Cuts: 2      292    8.30%
*     0+    0                          121.0000      114.6275      292    5.27%
*     0+    0                          119.0000      114.6275      292    3.67%
*     0+    0                          118.0000      114.6275      292    2.86%

Repeating presolve.
Tried aggregator 1 time.
MIP Presolve eliminated 3 rows and 590 columns.
Aggregator did 12 substitutions.
Reduced MIP has 95 rows, 399 columns, and 806 nonzeros.
Tried aggregator 1 time.
Represolve time =    0.02 sec.
Clique table members: 129.
MIP emphasis: balance optimality and feasibility.
MIP search method: dynamic search.
Parallel mode: none, using 1 thread.
Root relaxation solution time =   -0.00 sec.

        Nodes                                         Cuts/
   Node  Left     Objective  IInf  Best Integer     Best Node    ItCnt     Gap

      0     0      115.0000    29      118.0000      115.0000      124    2.54%
      0     2      115.0000    29      118.0000      115.0000      124    2.54%
    100    50      116.0081    21      118.0000      115.0000     1578    2.54%
    200   112      117.0000    23      118.0000      115.0000     3471    2.54%
    300   181      116.0000    36      118.0000      115.0000     7652    2.54%
    400   250      117.0000    48      118.0000      115.0000    13219    2.54%
*   480+  138                          117.0000      115.0000    18714    1.71%
    500   160      116.0000    45      117.0000      115.0000    19001    1.71%
    600   215      116.0000    19      117.0000      116.0000    26849    0.85%
    700   167      116.0000    78      117.0000      116.0000    39747    0.85%

Cover cuts applied:  232
Flow cuts applied:  3
Mixed integer rounding cuts applied:  16
Zero-half cuts applied:  4
Gomory fractional cuts applied:  19

Solution pool: 11 solutions saved.

MIP - Integer optimal solution:  Objective = 1.1700000000e+002
Solution time =    5.92 sec.  Iterations = 55233  Nodes = 796 (81)


Incumbent solution
Variable Name           Solution Value
Cmax                        117.000000
X_1_7                         1.000000
X_2_9                         1.000000
X_3_4                         1.000000
X_4_5                         1.000000
X_5_2                         1.000000
X_6_2                         1.000000
X_7_2                         1.000000
X_8_3                         1.000000
X_9_10                        1.000000
X_10_9                        1.000000
X_11_9                        1.000000
X_12_2                        1.000000
X_13_1                        1.000000
X_14_2                        1.000000
X_15_10                       1.000000
X_16_9                        1.000000
X_17_3                        1.000000
X_18_10                       1.000000
X_19_4                        1.000000
X_20_5                        1.000000
X_21_4                        1.000000
X_22_9                        1.000000
X_23_10                       1.000000
X_24_10                       1.000000
X_25_2                        1.000000
X_26_5                        1.000000
X_27_8                        1.000000
X_28_5                        1.000000
X_29_6                        1.000000
X_30_6                        1.000000
X_31_9                        1.000000
X_32_8                        1.000000
X_33_8                        1.000000
X_34_10                       1.000000
X_35_7                        1.000000
X_36_3                        1.000000
X_37_1                        1.000000
X_38_5                        1.000000
X_39_9                        1.000000
X_40_9                        1.000000
X_41_5                        1.000000
X_42_1                        1.000000
X_43_2                        1.000000
X_44_8                        1.000000
X_45_9                        1.000000
X_46_5                        1.000000
X_47_4                        1.000000
X_48_9                        1.000000
X_49_7                        1.000000
X_50_6                        1.000000
X_51_8                        1.000000
X_52_4                        1.000000
X_53_6                        1.000000
X_54_3                        1.000000
X_55_6                        1.000000
X_56_1                        1.000000
X_57_1                        1.000000
X_58_7                        1.000000
X_59_6                        1.000000
X_60_7                        1.000000
X_61_1                        1.000000
X_62_6                        1.000000
X_63_9                        1.000000
X_64_3                        1.000000
X_65_10                       1.000000
X_66_6                        1.000000
X_67_3                        1.000000
X_68_6                        1.000000
X_69_2                        1.000000
X_70_1                        1.000000
X_71_7                        1.000000
X_72_10                       1.000000
X_73_7                        1.000000
X_74_10                       1.000000
X_75_8                        1.000000
X_76_2                        1.000000
X_77_5                        1.000000
X_78_1                        1.000000
X_79_3                        1.000000
X_80_7                        1.000000
X_81_3                        1.000000
X_82_4                        1.000000
X_83_6                        1.000000
X_84_2                        1.000000
X_85_4                        1.000000
X_86_6                        1.000000
X_87_8                        1.000000
X_88_2                        1.000000
X_89_10                       1.000000
X_90_1                        1.000000
X_91_5                        1.000000
X_92_7                        1.000000
X_93_9                        1.000000
X_94_5                        1.000000
X_95_6                        1.000000
X_96_8                        1.000000
X_97_5                        1.000000
X_98_10                       1.000000
X_99_8                        1.000000
X_100_1                       1.000000
All other variables in the range 1-1001 are 0.
